p cnf 12 50 
-1 6 -5 0
10 -6 9 0
7 1 2 0
-9 -4 3 0
5 2 8 0
-12 3 -2 0
-11 -9 -8 0
-2 -6 -3 0
4 12 -8 0
-1 10 4 0
-6 1 -11 0
4 7 2 0
8 9 12 0
10 12 5 0
10 4 -11 0
-12 -5 -9 0
-8 12 -7 0
-2 11 -4 0
-8 -6 -11 0
1 6 -2 0
-11 5 -4 0
-3 7 1 0
11 8 2 0
-6 -9 -11 0
3 8 5 0
-10 -8 -4 0
1 7 11 0
12 -8 -11 0
-11 3 7 0
-4 1 -8 0
7 -12 4 0
8 -6 -10 0
-6 3 5 0
-10 -1 6 0
-5 -6 1 0
3 6 11 0
10 4 12 0
9 -3 -5 0
-2 -11 -1 0
10 1 5 0
-12 -9 -4 0
-10 4 -2 0
-5 2 -1 0
8 6 10 0
-7 -2 4 0
4 3 8 0
8 12 -4 0
-10 -7 -9 0
-2 12 -6 0
-3 1 12 0
